90 4005
1 2 120
1 3 190
1 4 174
1 5 242
1 6 66
1 7 264
1 8 152
1 9 226
1 10 133
1 11 111
1 12 190
1 13 234
1 14 138
1 15 245
1 16 75
1 17 255
1 18 164
1 19 68
1 20 14
1 21 124
1 22 13
1 23 146
1 24 64
1 25 93
1 26 205
1 27 138
1 28 250
1 29 186
1 30 15
1 31 59
1 32 156
1 33 11
1 34 89
1 35 99
1 36 191
1 37 114
1 38 269
1 39 53
1 40 206
1 41 104
1 42 79
1 43 263
1 44 187
1 45 155
1 46 139
1 47 175
1 48 84
1 49 101
1 50 100
1 51 129
1 52 138
1 53 35
1 54 20
1 55 68
1 56 106
1 57 208
1 58 14
1 59 72
1 60 226
1 61 114
1 62 5
1 63 92
1 64 231
1 65 86
1 66 93
1 67 76
1 68 23
1 69 102
1 70 178
1 71 208
1 72 32
1 73 133
1 74 182
1 75 66
1 76 144
1 77 46
1 78 73
1 79 77
1 80 130
1 81 107
1 82 37
1 83 100
1 84 203
1 85 250
1 86 27
1 87 249
1 88 78
1 89 187
1 90 80
2 3 150
2 4 171
2 5 21
2 6 66
2 7 138
2 8 15
2 9 200
2 10 257
2 11 162
2 12 249
2 13 46
2 14 90
2 15 191
2 16 72
2 17 83
2 18 22
2 19 112
2 20 85
2 21 158
2 22 55
2 23 61
2 24 119
2 25 13
2 26 258
2 27 226
2 28 249
2 29 79
2 30 110
2 31 82
2 32 71
2 33 88
2 34 28
2 35 81
2 36 250
2 37 60
2 38 132
2 39 83
2 40 146
2 41 206
2 42 253
2 43 153
2 44 125
2 45 112
2 46 75
2 47 174
2 48 195
2 49 191
2 50 77
2 51 80
2 52 114
2 53 210
2 54 100
2 55 24
2 56 135
2 57 31
2 58 138
2 59 192
2 60 242
2 61 99
2 62 133
2 63 250
2 64 180
2 65 100
2 66 48
2 67 195
2 68 108
2 69 124
2 70 215
2 71 194
2 72 65
2 73 7
2 74 199
2 75 53
2 76 5
2 77 117
2 78 5
2 79 93
2 80 197
2 81 149
2 82 113
2 83 72
2 84 116
2 85 204
2 86 63
2 87 58
2 88 132
2 89 201
2 90 82
3 4 260
3 5 242
3 6 86
3 7 89
3 8 255
3 9 131
3 10 113
3 11 95
3 12 209
3 13 22
3 14 161
3 15 106
3 16 194
3 17 155
3 18 185
3 19 14
3 20 178
3 21 212
3 22 66
3 23 248
3 24 222
3 25 168
3 26 263
3 27 209
3 28 173
3 29 209
3 30 67
3 31 249
3 32 240
3 33 56
3 34 4
3 35 76
3 36 191
3 37 53
3 38 17
3 39 122
3 40 120
3 41 90
3 42 53
3 43 162
3 44 201
3 45 170
3 46 214
3 47 216
3 48 116
3 49 218
3 50 157
3 51 226
3 52 215
3 53 202
3 54 7
3 55 136
3 56 167
3 57 268
3 58 180
3 59 269
3 60 112
3 61 173
3 62 42
3 63 140
3 64 73
3 65 185
3 66 211
3 67 55
3 68 108
3 69 210
3 70 76
3 71 136
3 72 67
3 73 224
3 74 238
3 75 209
3 76 93
3 77 229
3 78 138
3 79 93
3 80 173
3 81 226
3 82 49
3 83 61
3 84 201
3 85 96
3 86 253
3 87 155
3 88 176
3 89 4
3 90 135
4 5 67
4 6 265
4 7 164
4 8 167
4 9 5
4 10 268
4 11 5
4 12 214
4 13 102
4 14 208
4 15 218
4 16 168
4 17 165
4 18 49
4 19 130
4 20 143
4 21 114
4 22 248
4 23 159
4 24 46
4 25 52
4 26 18
4 27 7
4 28 85
4 29 173
4 30 104
4 31 208
4 32 245
4 33 187
4 34 237
4 35 85
4 36 208
4 37 77
4 38 106
4 39 77
4 40 236
4 41 86
4 42 39
4 43 56
4 44 64
4 45 255
4 46 69
4 47 183
4 48 206
4 49 103
4 50 220
4 51 235
4 52 33
4 53 23
4 54 254
4 55 241
4 56 224
4 57 121
4 58 180
4 59 116
4 60 223
4 61 187
4 62 234
4 63 109
4 64 128
4 65 258
4 66 28
4 67 151
4 68 176
4 69 98
4 70 268
4 71 122
4 72 137
4 73 203
4 74 84
4 75 255
4 76 254
4 77 241
4 78 102
4 79 49
4 80 130
4 81 41
4 82 34
4 83 112
4 84 109
4 85 117
4 86 117
4 87 241
4 88 240
4 89 42
4 90 144
5 6 44
5 7 217
5 8 125
5 9 89
5 10 119
5 11 170
5 12 242
5 13 148
5 14 171
5 15 79
5 16 31
5 17 220
5 18 231
5 19 229
5 20 34
5 21 236
5 22 258
5 23 92
5 24 216
5 25 24
5 26 109
5 27 110
5 28 106
5 29 59
5 30 150
5 31 120
5 32 228
5 33 67
5 34 164
5 35 60
5 36 68
5 37 201
5 38 81
5 39 61
5 40 148
5 41 47
5 42 34
5 43 41
5 44 10
5 45 115
5 46 173
5 47 267
5 48 159
5 49 107
5 50 149
5 51 97
5 52 77
5 53 142
5 54 181
5 55 152
5 56 92
5 57 91
5 58 234
5 59 109
5 60 32
5 61 46
5 62 17
5 63 217
5 64 183
5 65 120
5 66 265
5 67 153
5 68 121
5 69 213
5 70 251
5 71 95
5 72 61
5 73 106
5 74 247
5 75 224
5 76 107
5 77 241
5 78 115
5 79 166
5 80 119
5 81 168
5 82 207
5 83 222
5 84 183
5 85 199
5 86 28
5 87 253
5 88 232
5 89 196
5 90 17
6 7 205
6 8 219
6 9 174
6 10 264
6 11 3
6 12 103
6 13 242
6 14 202
6 15 103
6 16 255
6 17 17
6 18 206
6 19 32
6 20 131
6 21 79
6 22 236
6 23 229
6 24 40
6 25 137
6 26 107
6 27 216
6 28 17
6 29 192
6 30 185
6 31 205
6 32 167
6 33 151
6 34 237
6 35 215
6 36 233
6 37 31
6 38 140
6 39 235
6 40 12
6 41 52
6 42 227
6 43 173
6 44 232
6 45 24
6 46 223
6 47 108
6 48 68
6 49 90
6 50 140
6 51 205
6 52 208
6 53 230
6 54 55
6 55 268
6 56 35
6 57 241
6 58 105
6 59 203
6 60 152
6 61 229
6 62 158
6 63 127
6 64 3
6 65 121
6 66 17
6 67 99
6 68 18
6 69 68
6 70 42
6 71 185
6 72 179
6 73 48
6 74 133
6 75 77
6 76 90
6 77 191
6 78 29
6 79 102
6 80 126
6 81 30
6 82 243
6 83 26
6 84 257
6 85 120
6 86 118
6 87 141
6 88 64
6 89 210
6 90 239
7 8 125
7 9 41
7 10 41
7 11 85
7 12 7
7 13 124
7 14 209
7 15 205
7 16 251
7 17 108
7 18 37
7 19 237
7 20 175
7 21 250
7 22 248
7 23 174
7 24 111
7 25 29
7 26 241
7 27 102
7 28 147
7 29 224
7 30 268
7 31 148
7 32 142
7 33 151
7 34 193
7 35 81
7 36 123
7 37 247
7 38 186
7 39 186
7 40 259
7 41 26
7 42 120
7 43 117
7 44 187
7 45 20
7 46 117
7 47 11
7 48 105
7 49 267
7 50 19
7 51 241
7 52 13
7 53 189
7 54 42
7 55 155
7 56 160
7 57 57
7 58 230
7 59 213
7 60 8
7 61 53
7 62 49
7 63 107
7 64 226
7 65 59
7 66 95
7 67 222
7 68 93
7 69 110
7 70 173
7 71 66
7 72 165
7 73 36
7 74 13
7 75 4
7 76 5
7 77 88
7 78 143
7 79 264
7 80 93
7 81 220
7 82 240
7 83 62
7 84 110
7 85 127
7 86 228
7 87 221
7 88 30
7 89 263
7 90 50
8 9 242
8 10 238
8 11 184
8 12 83
8 13 37
8 14 60
8 15 138
8 16 115
8 17 82
8 18 179
8 19 150
8 20 220
8 21 76
8 22 90
8 23 121
8 24 151
8 25 216
8 26 209
8 27 261
8 28 104
8 29 61
8 30 175
8 31 60
8 32 210
8 33 176
8 34 214
8 35 206
8 36 1
8 37 241
8 38 213
8 39 9
8 40 58
8 41 145
8 42 91
8 43 102
8 44 150
8 45 189
8 46 155
8 47 112
8 48 218
8 49 36
8 50 101
8 51 145
8 52 196
8 53 100
8 54 1
8 55 234
8 56 267
8 57 154
8 58 10
8 59 68
8 60 198
8 61 111
8 62 258
8 63 91
8 64 171
8 65 132
8 66 93
8 67 34
8 68 261
8 69 100
8 70 255
8 71 112
8 72 170
8 73 161
8 74 31
8 75 155
8 76 173
8 77 127
8 78 217
8 79 224
8 80 77
8 81 10
8 82 7
8 83 203
8 84 256
8 85 142
8 86 161
8 87 7
8 88 141
8 89 264
8 90 193
9 10 219
9 11 221
9 12 191
9 13 84
9 14 142
9 15 224
9 16 248
9 17 204
9 18 260
9 19 134
9 20 37
9 21 22
9 22 6
9 23 167
9 24 93
9 25 239
9 26 205
9 27 61
9 28 123
9 29 84
9 30 192
9 31 198
9 32 144
9 33 207
9 34 29
9 35 256
9 36 98
9 37 224
9 38 170
9 39 162
9 40 40
9 41 153
9 42 257
9 43 43
9 44 26
9 45 209
9 46 76
9 47 54
9 48 76
9 49 196
9 50 216
9 51 21
9 52 232
9 53 118
9 54 119
9 55 228
9 56 35
9 57 199
9 58 250
9 59 137
9 60 48
9 61 56
9 62 57
9 63 70
9 64 55
9 65 73
9 66 165
9 67 168
9 68 121
9 69 83
9 70 157
9 71 41
9 72 139
9 73 111
9 74 73
9 75 236
9 76 1
9 77 24
9 78 51
9 79 251
9 80 231
9 81 60
9 82 170
9 83 203
9 84 188
9 85 63
9 86 96
9 87 227
9 88 180
9 89 190
9 90 89
10 11 223
10 12 151
10 13 180
10 14 182
10 15 264
10 16 214
10 17 209
10 18 31
10 19 194
10 20 5
10 21 136
10 22 200
10 23 255
10 24 246
10 25 111
10 26 169
10 27 67
10 28 180
10 29 76
10 30 119
10 31 195
10 32 117
10 33 229
10 34 210
10 35 82
10 36 222
10 37 146
10 38 9
10 39 50
10 40 182
10 41 13
10 42 109
10 43 259
10 44 228
10 45 206
10 46 177
10 47 200
10 48 225
10 49 215
10 50 15
10 51 265
10 52 186
10 53 9
10 54 191
10 55 159
10 56 253
10 57 244
10 58 184
10 59 46
10 60 192
10 61 209
10 62 249
10 63 189
10 64 242
10 65 219
10 66 24
10 67 87
10 68 158
10 69 226
10 70 146
10 71 147
10 72 64
10 73 157
10 74 236
10 75 9
10 76 227
10 77 8
10 78 51
10 79 96
10 80 204
10 81 87
10 82 185
10 83 36
10 84 242
10 85 199
10 86 198
10 87 141
10 88 211
10 89 165
10 90 23
11 12 177
11 13 153
11 14 44
11 15 102
11 16 219
11 17 214
11 18 104
11 19 107
11 20 261
11 21 37
11 22 163
11 23 36
11 24 138
11 25 21
11 26 269
11 27 206
11 28 189
11 29 83
11 30 147
11 31 224
11 32 12
11 33 20
11 34 184
11 35 95
11 36 262
11 37 193
11 38 190
11 39 40
11 40 23
11 41 188
11 42 112
11 43 19
11 44 199
11 45 156
11 46 76
11 47 207
11 48 132
11 49 103
11 50 162
11 51 152
11 52 17
11 53 133
11 54 116
11 55 106
11 56 19
11 57 22
11 58 208
11 59 120
11 60 79
11 61 4
11 62 86
11 63 21
11 64 166
11 65 24
11 66 181
11 67 15
11 68 189
11 69 201
11 70 130
11 71 137
11 72 92
11 73 109
11 74 175
11 75 263
11 76 260
11 77 258
11 78 29
11 79 245
11 80 184
11 81 164
11 82 229
11 83 182
11 84 59
11 85 93
11 86 51
11 87 169
11 88 96
11 89 146
11 90 18
12 13 93
12 14 265
12 15 140
12 16 1
12 17 43
12 18 158
12 19 265
12 20 243
12 21 102
12 22 185
12 23 200
12 24 264
12 25 227
12 26 150
12 27 147
12 28 159
12 29 254
12 30 183
12 31 127
12 32 168
12 33 49
12 34 243
12 35 188
12 36 90
12 37 243
12 38 249
12 39 235
12 40 177
12 41 83
12 42 136
12 43 170
12 44 215
12 45 127
12 46 118
12 47 212
12 48 75
12 49 62
12 50 60
12 51 44
12 52 255
12 53 241
12 54 116
12 55 210
12 56 159
12 57 190
12 58 256
12 59 230
12 60 28
12 61 44
12 62 4
12 63 214
12 64 147
12 65 131
12 66 207
12 67 51
12 68 4
12 69 105
12 70 47
12 71 231
12 72 73
12 73 24
12 74 122
12 75 263
12 76 143
12 77 196
12 78 73
12 79 139
12 80 33
12 81 150
12 82 126
12 83 164
12 84 151
12 85 28
12 86 185
12 87 157
12 88 3
12 89 127
12 90 257
13 14 73
13 15 86
13 16 79
13 17 25
13 18 237
13 19 199
13 20 193
13 21 166
13 22 49
13 23 12
13 24 131
13 25 176
13 26 132
13 27 144
13 28 10
13 29 156
13 30 48
13 31 104
13 32 216
13 33 131
13 34 34
13 35 195
13 36 118
13 37 38
13 38 168
13 39 28
13 40 253
13 41 19
13 42 52
13 43 134
13 44 240
13 45 252
13 46 83
13 47 142
13 48 123
13 49 80
13 50 164
13 51 250
13 52 127
13 53 83
13 54 95
13 55 209
13 56 205
13 57 233
13 58 26
13 59 257
13 60 119
13 61 184
13 62 88
13 63 22
13 64 40
13 65 1
13 66 236
13 67 237
13 68 167
13 69 90
13 70 179
13 71 253
13 72 155
13 73 164
13 74 176
13 75 6
13 76 222
13 77 126
13 78 86
13 79 140
13 80 190
13 81 216
13 82 145
13 83 218
13 84 123
13 85 78
13 86 220
13 87 22
13 88 16
13 89 50
13 90 204
14 15 40
14 16 137
14 17 31
14 18 131
14 19 177
14 20 57
14 21 229
14 22 209
14 23 46
14 24 142
14 25 151
14 26 259
14 27 121
14 28 33
14 29 3
14 30 94
14 31 120
14 32 129
14 33 75
14 34 31
14 35 23
14 36 110
14 37 14
14 38 117
14 39 240
14 40 203
14 41 39
14 42 247
14 43 106
14 44 144
14 45 53
14 46 211
14 47 228
14 48 223
14 49 249
14 50 231
14 51 105
14 52 215
14 53 207
14 54 141
14 55 180
14 56 66
14 57 187
14 58 262
14 59 208
14 60 27
14 61 203
14 62 177
14 63 50
14 64 193
14 65 36
14 66 38
14 67 118
14 68 48
14 69 185
14 70 145
14 71 245
14 72 75
14 73 60
14 74 4
14 75 164
14 76 91
14 77 144
14 78 228
14 79 207
14 80 99
14 81 147
14 82 182
14 83 75
14 84 7
14 85 209
14 86 14
14 87 106
14 88 179
14 89 120
14 90 24
15 16 73
15 17 142
15 18 141
15 19 5
15 20 140
15 21 14
15 22 99
15 23 55
15 24 69
15 25 241
15 26 177
15 27 178
15 28 196
15 29 113
15 30 175
15 31 156
15 32 243
15 33 73
15 34 154
15 35 126
15 36 264
15 37 74
15 38 159
15 39 91
15 40 208
15 41 95
15 42 193
15 43 121
15 44 247
15 45 254
15 46 139
15 47 88
15 48 202
15 49 5
15 50 252
15 51 12
15 52 70
15 53 84
15 54 71
15 55 166
15 56 264
15 57 212
15 58 193
15 59 130
15 60 73
15 61 250
15 62 235
15 63 261
15 64 115
15 65 26
15 66 261
15 67 186
15 68 189
15 69 183
15 70 92
15 71 105
15 72 9
15 73 53
15 74 51
15 75 68
15 76 132
15 77 64
15 78 132
15 79 96
15 80 56
15 81 179
15 82 64
15 83 262
15 84 177
15 85 261
15 86 89
15 87 19
15 88 184
15 89 192
15 90 9
16 17 0
16 18 251
16 19 234
16 20 203
16 21 17
16 22 13
16 23 158
16 24 117
16 25 211
16 26 224
16 27 140
16 28 186
16 29 206
16 30 261
16 31 254
16 32 232
16 33 182
16 34 247
16 35 6
16 36 76
16 37 70
16 38 90
16 39 213
16 40 60
16 41 242
16 42 81
16 43 265
16 44 209
16 45 39
16 46 200
16 47 110
16 48 129
16 49 215
16 50 172
16 51 31
16 52 202
16 53 93
16 54 9
16 55 178
16 56 23
16 57 31
16 58 201
16 59 263
16 60 151
16 61 208
16 62 206
16 63 124
16 64 148
16 65 1
16 66 94
16 67 218
16 68 4
16 69 62
16 70 34
16 71 19
16 72 234
16 73 192
16 74 93
16 75 199
16 76 71
16 77 28
16 78 59
16 79 181
16 80 89
16 81 79
16 82 184
16 83 267
16 84 259
16 85 114
16 86 147
16 87 74
16 88 40
16 89 223
16 90 259
17 18 55
17 19 114
17 20 171
17 21 144
17 22 143
17 23 168
17 24 46
17 25 199
17 26 250
17 27 243
17 28 264
17 29 1
17 30 188
17 31 143
17 32 146
17 33 123
17 34 266
17 35 237
17 36 204
17 37 99
17 38 24
17 39 89
17 40 165
17 41 202
17 42 224
17 43 137
17 44 231
17 45 154
17 46 194
17 47 127
17 48 102
17 49 219
17 50 74
17 51 43
17 52 151
17 53 43
17 54 111
17 55 81
17 56 30
17 57 16
17 58 192
17 59 216
17 60 106
17 61 124
17 62 214
17 63 1
17 64 251
17 65 269
17 66 199
17 67 244
17 68 230
17 69 162
17 70 117
17 71 48
17 72 55
17 73 254
17 74 73
17 75 240
17 76 238
17 77 198
17 78 28
17 79 26
17 80 164
17 81 124
17 82 188
17 83 257
17 84 114
17 85 132
17 86 253
17 87 199
17 88 150
17 89 102
17 90 181
18 19 240
18 20 220
18 21 199
18 22 220
18 23 4
18 24 165
18 25 77
18 26 259
18 27 170
18 28 94
18 29 5
18 30 52
18 31 42
18 32 267
18 33 150
18 34 62
18 35 54
18 36 135
18 37 72
18 38 2
18 39 9
18 40 245
18 41 50
18 42 125
18 43 256
18 44 110
18 45 183
18 46 52
18 47 223
18 48 6
18 49 91
18 50 163
18 51 91
18 52 71
18 53 68
18 54 152
18 55 184
18 56 73
18 57 209
18 58 255
18 59 80
18 60 95
18 61 9
18 62 41
18 63 63
18 64 35
18 65 135
18 66 35
18 67 93
18 68 145
18 69 190
18 70 44
18 71 93
18 72 70
18 73 200
18 74 55
18 75 123
18 76 241
18 77 146
18 78 40
18 79 50
18 80 123
18 81 242
18 82 214
18 83 21
18 84 234
18 85 103
18 86 82
18 87 29
18 88 56
18 89 42
18 90 82
19 20 82
19 21 33
19 22 44
19 23 91
19 24 4
19 25 186
19 26 174
19 27 216
19 28 200
19 29 97
19 30 81
19 31 175
19 32 97
19 33 121
19 34 186
19 35 85
19 36 240
19 37 38
19 38 59
19 39 60
19 40 8
19 41 60
19 42 53
19 43 1
19 44 246
19 45 269
19 46 152
19 47 27
19 48 24
19 49 180
19 50 229
19 51 229
19 52 234
19 53 171
19 54 219
19 55 31
19 56 214
19 57 41
19 58 161
19 59 80
19 60 139
19 61 2
19 62 206
19 63 49
19 64 160
19 65 238
19 66 176
19 67 82
19 68 210
19 69 1
19 70 43
19 71 250
19 72 18
19 73 53
19 74 89
19 75 112
19 76 170
19 77 165
19 78 267
19 79 187
19 80 62
19 81 100
19 82 215
19 83 204
19 84 150
19 85 242
19 86 18
19 87 23
19 88 97
19 89 27
19 90 178
20 21 41
20 22 181
20 23 101
20 24 223
20 25 88
20 26 55
20 27 129
20 28 15
20 29 186
20 30 112
20 31 190
20 32 199
20 33 254
20 34 233
20 35 192
20 36 5
20 37 231
20 38 68
20 39 62
20 40 269
20 41 76
20 42 32
20 43 244
20 44 104
20 45 122
20 46 3
20 47 131
20 48 108
20 49 263
20 50 192
20 51 212
20 52 54
20 53 50
20 54 184
20 55 64
20 56 198
20 57 113
20 58 84
20 59 136
20 60 249
20 61 248
20 62 127
20 63 219
20 64 158
20 65 142
20 66 266
20 67 126
20 68 25
20 69 39
20 70 193
20 71 167
20 72 42
20 73 8
20 74 192
20 75 26
20 76 106
20 77 265
20 78 107
20 79 161
20 80 57
20 81 101
20 82 28
20 83 27
20 84 172
20 85 37
20 86 269
20 87 8
20 88 107
20 89 13
20 90 167
21 22 45
21 23 106
21 24 169
21 25 98
21 26 251
21 27 112
21 28 193
21 29 53
21 30 79
21 31 89
21 32 61
21 33 248
21 34 93
21 35 202
21 36 88
21 37 96
21 38 69
21 39 263
21 40 165
21 41 81
21 42 178
21 43 152
21 44 16
21 45 23
21 46 176
21 47 242
21 48 35
21 49 166
21 50 259
21 51 9
21 52 6
21 53 254
21 54 176
21 55 180
21 56 107
21 57 157
21 58 163
21 59 175
21 60 142
21 61 225
21 62 121
21 63 190
21 64 249
21 65 87
21 66 126
21 67 101
21 68 166
21 69 149
21 70 81
21 71 111
21 72 132
21 73 147
21 74 58
21 75 220
21 76 9
21 77 95
21 78 247
21 79 1
21 80 15
21 81 54
21 82 193
21 83 29
21 84 48
21 85 205
21 86 63
21 87 232
21 88 247
21 89 77
21 90 246
22 23 232
22 24 109
22 25 0
22 26 99
22 27 247
22 28 130
22 29 220
22 30 105
22 31 49
22 32 43
22 33 194
22 34 77
22 35 177
22 36 268
22 37 246
22 38 251
22 39 143
22 40 164
22 41 160
22 42 48
22 43 34
22 44 125
22 45 152
22 46 75
22 47 214
22 48 191
22 49 140
22 50 107
22 51 87
22 52 92
22 53 94
22 54 11
22 55 24
22 56 118
22 57 72
22 58 140
22 59 22
22 60 249
22 61 198
22 62 45
22 63 148
22 64 112
22 65 119
22 66 169
22 67 171
22 68 0
22 69 143
22 70 16
22 71 215
22 72 257
22 73 131
22 74 219
22 75 268
22 76 89
22 77 247
22 78 80
22 79 238
22 80 85
22 81 172
22 82 157
22 83 104
22 84 15
22 85 151
22 86 92
22 87 47
22 88 77
22 89 122
22 90 79
23 24 107
23 25 105
23 26 2
23 27 17
23 28 195
23 29 176
23 30 261
23 31 186
23 32 116
23 33 188
23 34 202
23 35 104
23 36 205
23 37 179
23 38 143
23 39 171
23 40 193
23 41 125
23 42 132
23 43 107
23 44 71
23 45 197
23 46 69
23 47 144
23 48 31
23 49 249
23 50 75
23 51 261
23 52 45
23 53 8
23 54 29
23 55 172
23 56 193
23 57 205
23 58 23
23 59 206
23 60 222
23 61 85
23 62 206
23 63 175
23 64 145
23 65 218
23 66 76
23 67 173
23 68 117
23 69 85
23 70 86
23 71 200
23 72 152
23 73 87
23 74 231
23 75 36
23 76 191
23 77 61
23 78 31
23 79 229
23 80 100
23 81 1
23 82 100
23 83 201
23 84 133
23 85 55
23 86 191
23 87 204
23 88 128
23 89 115
23 90 92
24 25 244
24 26 23
24 27 60
24 28 117
24 29 170
24 30 47
24 31 66
24 32 87
24 33 4
24 34 37
24 35 190
24 36 66
24 37 70
24 38 51
24 39 254
24 40 58
24 41 252
24 42 128
24 43 157
24 44 175
24 45 64
24 46 130
24 47 255
24 48 239
24 49 94
24 50 69
24 51 265
24 52 51
24 53 252
24 54 199
24 55 65
24 56 185
24 57 100
24 58 148
24 59 217
24 60 240
24 61 31
24 62 182
24 63 240
24 64 6
24 65 141
24 66 93
24 67 238
24 68 8
24 69 105
24 70 164
24 71 218
24 72 139
24 73 247
24 74 199
24 75 85
24 76 33
24 77 65
24 78 156
24 79 31
24 80 201
24 81 245
24 82 131
24 83 80
24 84 218
24 85 125
24 86 67
24 87 167
24 88 58
24 89 114
24 90 87
25 26 130
25 27 261
25 28 23
25 29 108
25 30 126
25 31 32
25 32 172
25 33 81
25 34 253
25 35 83
25 36 3
25 37 150
25 38 177
25 39 110
25 40 80
25 41 38
25 42 142
25 43 230
25 44 2
25 45 132
25 46 107
25 47 100
25 48 244
25 49 95
25 50 102
25 51 65
25 52 104
25 53 254
25 54 113
25 55 172
25 56 25
25 57 207
25 58 260
25 59 180
25 60 222
25 61 68
25 62 36
25 63 79
25 64 120
25 65 148
25 66 269
25 67 22
25 68 39
25 69 47
25 70 142
25 71 152
25 72 117
25 73 51
25 74 203
25 75 86
25 76 194
25 77 153
25 78 260
25 79 212
25 80 76
25 81 224
25 82 23
25 83 19
25 84 147
25 85 138
25 86 251
25 87 101
25 88 75
25 89 211
25 90 74
26 27 194
26 28 108
26 29 165
26 30 234
26 31 77
26 32 93
26 33 127
26 34 0
26 35 34
26 36 122
26 37 242
26 38 53
26 39 216
26 40 83
26 41 205
26 42 69
26 43 168
26 44 197
26 45 38
26 46 134
26 47 196
26 48 16
26 49 210
26 50 160
26 51 105
26 52 97
26 53 29
26 54 187
26 55 250
26 56 54
26 57 76
26 58 265
26 59 23
26 60 221
26 61 135
26 62 106
26 63 79
26 64 229
26 65 70
26 66 187
26 67 138
26 68 118
26 69 130
26 70 242
26 71 236
26 72 17
26 73 23
26 74 129
26 75 90
26 76 176
26 77 103
26 78 192
26 79 144
26 80 224
26 81 117
26 82 84
26 83 71
26 84 88
26 85 78
26 86 63
26 87 10
26 88 45
26 89 49
26 90 23
27 28 240
27 29 111
27 30 221
27 31 189
27 32 243
27 33 30
27 34 63
27 35 69
27 36 15
27 37 64
27 38 266
27 39 249
27 40 37
27 41 180
27 42 76
27 43 259
27 44 90
27 45 123
27 46 178
27 47 154
27 48 228
27 49 89
27 50 53
27 51 140
27 52 5
27 53 91
27 54 259
27 55 213
27 56 140
27 57 74
27 58 152
27 59 247
27 60 6
27 61 153
27 62 266
27 63 69
27 64 146
27 65 214
27 66 211
27 67 173
27 68 91
27 69 30
27 70 214
27 71 50
27 72 41
27 73 234
27 74 13
27 75 84
27 76 136
27 77 222
27 78 32
27 79 268
27 80 24
27 81 129
27 82 34
27 83 18
27 84 100
27 85 107
27 86 62
27 87 265
27 88 90
27 89 66
27 90 42
28 29 13
28 30 95
28 31 215
28 32 191
28 33 65
28 34 111
28 35 66
28 36 4
28 37 129
28 38 76
28 39 109
28 40 69
28 41 140
28 42 263
28 43 127
28 44 56
28 45 154
28 46 125
28 47 173
28 48 247
28 49 73
28 50 9
28 51 108
28 52 28
28 53 128
28 54 155
28 55 255
28 56 178
28 57 248
28 58 35
28 59 106
28 60 5
28 61 237
28 62 249
28 63 68
28 64 81
28 65 238
28 66 260
28 67 58
28 68 63
28 69 214
28 70 265
28 71 153
28 72 203
28 73 210
28 74 3
28 75 186
28 76 155
28 77 202
28 78 137
28 79 249
28 80 87
28 81 11
28 82 122
28 83 171
28 84 220
28 85 266
28 86 178
28 87 155
28 88 163
28 89 81
28 90 32
29 30 53
29 31 226
29 32 138
29 33 116
29 34 161
29 35 15
29 36 160
29 37 125
29 38 50
29 39 249
29 40 33
29 41 123
29 42 269
29 43 21
29 44 38
29 45 218
29 46 123
29 47 113
29 48 162
29 49 55
29 50 76
29 51 11
29 52 98
29 53 237
29 54 233
29 55 86
29 56 27
29 57 88
29 58 68
29 59 202
29 60 36
29 61 206
29 62 80
29 63 91
29 64 138
29 65 107
29 66 35
29 67 143
29 68 200
29 69 146
29 70 253
29 71 44
29 72 268
29 73 103
29 74 127
29 75 103
29 76 123
29 77 215
29 78 24
29 79 7
29 80 237
29 81 169
29 82 55
29 83 218
29 84 4
29 85 81
29 86 191
29 87 222
29 88 18
29 89 163
29 90 250
30 31 229
30 32 246
30 33 248
30 34 86
30 35 20
30 36 82
30 37 105
30 38 69
30 39 164
30 40 59
30 41 199
30 42 108
30 43 261
30 44 83
30 45 235
30 46 81
30 47 78
30 48 129
30 49 251
30 50 123
30 51 34
30 52 233
30 53 231
30 54 45
30 55 107
30 56 148
30 57 7
30 58 144
30 59 150
30 60 11
30 61 198
30 62 258
30 63 55
30 64 268
30 65 72
30 66 10
30 67 121
30 68 248
30 69 74
30 70 1
30 71 221
30 72 39
30 73 63
30 74 136
30 75 24
30 76 189
30 77 108
30 78 97
30 79 232
30 80 13
30 81 231
30 82 90
30 83 35
30 84 62
30 85 255
30 86 151
30 87 256
30 88 21
30 89 216
30 90 254
31 32 256
31 33 53
31 34 89
31 35 178
31 36 261
31 37 247
31 38 86
31 39 82
31 40 33
31 41 240
31 42 181
31 43 128
31 44 138
31 45 12
31 46 263
31 47 95
31 48 78
31 49 130
31 50 116
31 51 268
31 52 28
31 53 91
31 54 170
31 55 35
31 56 98
31 57 169
31 58 13
31 59 79
31 60 52
31 61 54
31 62 239
31 63 129
31 64 249
31 65 20
31 66 186
31 67 258
31 68 31
31 69 234
31 70 244
31 71 125
31 72 250
31 73 97
31 74 241
31 75 142
31 76 71
31 77 262
31 78 103
31 79 4
31 80 157
31 81 225
31 82 20
31 83 11
31 84 91
31 85 68
31 86 129
31 87 205
31 88 231
31 89 94
31 90 151
32 33 113
32 34 130
32 35 67
32 36 150
32 37 257
32 38 176
32 39 215
32 40 160
32 41 79
32 42 137
32 43 194
32 44 203
32 45 82
32 46 16
32 47 205
32 48 247
32 49 196
32 50 100
32 51 26
32 52 61
32 53 34
32 54 34
32 55 31
32 56 161
32 57 135
32 58 187
32 59 177
32 60 252
32 61 115
32 62 155
32 63 245
32 64 227
32 65 23
32 66 45
32 67 64
32 68 246
32 69 192
32 70 127
32 71 75
32 72 203
32 73 141
32 74 9
32 75 48
32 76 76
32 77 266
32 78 105
32 79 189
32 80 200
32 81 32
32 82 108
32 83 258
32 84 133
32 85 65
32 86 208
32 87 214
32 88 241
32 89 264
32 90 229
33 34 95
33 35 241
33 36 177
33 37 159
33 38 197
33 39 199
33 40 168
33 41 95
33 42 182
33 43 25
33 44 196
33 45 71
33 46 203
33 47 42
33 48 53
33 49 179
33 50 53
33 51 257
33 52 233
33 53 128
33 54 203
33 55 118
33 56 27
33 57 118
33 58 81
33 59 214
33 60 165
33 61 53
33 62 230
33 63 125
33 64 21
33 65 67
33 66 14
33 67 93
33 68 118
33 69 253
33 70 193
33 71 215
33 72 159
33 73 8
33 74 47
33 75 155
33 76 51
33 77 107
33 78 228
33 79 205
33 80 222
33 81 178
33 82 108
33 83 57
33 84 264
33 85 134
33 86 15
33 87 211
33 88 261
33 89 143
33 90 177
34 35 74
34 36 259
34 37 205
34 38 216
34 39 27
34 40 137
34 41 191
34 42 2
34 43 93
34 44 165
34 45 262
34 46 179
34 47 100
34 48 188
34 49 158
34 50 1
34 51 106
34 52 155
34 53 5
34 54 153
34 55 78
34 56 69
34 57 83
34 58 65
34 59 105
34 60 225
34 61 266
34 62 190
34 63 249
34 64 229
34 65 256
34 66 40
34 67 34
34 68 29
34 69 76
34 70 176
34 71 136
34 72 5
34 73 177
34 74 2
34 75 99
34 76 162
34 77 174
34 78 31
34 79 236
34 80 178
34 81 264
34 82 54
34 83 63
34 84 265
34 85 44
34 86 147
34 87 233
34 88 148
34 89 231
34 90 201
35 36 16
35 37 108
35 38 201
35 39 243
35 40 234
35 41 121
35 42 235
35 43 19
35 44 189
35 45 153
35 46 42
35 47 189
35 48 214
35 49 224
35 50 240
35 51 103
35 52 1
35 53 170
35 54 204
35 55 34
35 56 133
35 57 59
35 58 43
35 59 68
35 60 95
35 61 198
35 62 243
35 63 243
35 64 110
35 65 269
35 66 257
35 67 117
35 68 223
35 69 193
35 70 126
35 71 131
35 72 111
35 73 109
35 74 48
35 75 244
35 76 203
35 77 31
35 78 143
35 79 158
35 80 235
35 81 141
35 82 246
35 83 104
35 84 127
35 85 215
35 86 37
35 87 228
35 88 11
35 89 22
35 90 261
36 37 40
36 38 166
36 39 15
36 40 49
36 41 46
36 42 149
36 43 264
36 44 86
36 45 64
36 46 185
36 47 30
36 48 220
36 49 116
36 50 212
36 51 20
36 52 208
36 53 66
36 54 229
36 55 55
36 56 210
36 57 124
36 58 143
36 59 106
36 60 6
36 61 81
36 62 230
36 63 221
36 64 15
36 65 85
36 66 75
36 67 221
36 68 78
36 69 191
36 70 136
36 71 182
36 72 50
36 73 205
36 74 139
36 75 234
36 76 197
36 77 109
36 78 245
36 79 200
36 80 163
36 81 46
36 82 242
36 83 200
36 84 191
36 85 141
36 86 208
36 87 86
36 88 56
36 89 28
36 90 96
37 38 86
37 39 142
37 40 172
37 41 205
37 42 133
37 43 68
37 44 65
37 45 176
37 46 21
37 47 206
37 48 205
37 49 126
37 50 269
37 51 45
37 52 260
37 53 121
37 54 167
37 55 79
37 56 251
37 57 230
37 58 57
37 59 169
37 60 25
37 61 216
37 62 166
37 63 34
37 64 215
37 65 30
37 66 199
37 67 151
37 68 228
37 69 7
37 70 219
37 71 166
37 72 263
37 73 72
37 74 122
37 75 85
37 76 172
37 77 125
37 78 44
37 79 87
37 80 66
37 81 190
37 82 74
37 83 97
37 84 255
37 85 14
37 86 238
37 87 108
37 88 2
37 89 89
37 90 225
38 39 71
38 40 19
38 41 12
38 42 213
38 43 197
38 44 234
38 45 256
38 46 6
38 47 53
38 48 119
38 49 191
38 50 46
38 51 185
38 52 57
38 53 48
38 54 157
38 55 59
38 56 18
38 57 65
38 58 209
38 59 165
38 60 72
38 61 169
38 62 158
38 63 76
38 64 268
38 65 6
38 66 82
38 67 58
38 68 6
38 69 14
38 70 65
38 71 78
38 72 73
38 73 224
38 74 127
38 75 55
38 76 48
38 77 193
38 78 9
38 79 175
38 80 244
38 81 176
38 82 118
38 83 32
38 84 194
38 85 241
38 86 5
38 87 25
38 88 207
38 89 46
38 90 22
39 40 146
39 41 1
39 42 187
39 43 49
39 44 224
39 45 205
39 46 24
39 47 119
39 48 164
39 49 183
39 50 228
39 51 131
39 52 159
39 53 156
39 54 68
39 55 228
39 56 217
39 57 138
39 58 223
39 59 26
39 60 8
39 61 18
39 62 151
39 63 9
39 64 45
39 65 23
39 66 7
39 67 99
39 68 33
39 69 241
39 70 101
39 71 136
39 72 212
39 73 28
39 74 163
39 75 268
39 76 191
39 77 25
39 78 178
39 79 79
39 80 118
39 81 139
39 82 125
39 83 28
39 84 172
39 85 26
39 86 152
39 87 154
39 88 198
39 89 150
39 90 53
40 41 269
40 42 195
40 43 205
40 44 183
40 45 49
40 46 244
40 47 34
40 48 30
40 49 112
40 50 102
40 51 225
40 52 258
40 53 208
40 54 217
40 55 124
40 56 37
40 57 135
40 58 116
40 59 206
40 60 168
40 61 146
40 62 229
40 63 209
40 64 160
40 65 57
40 66 112
40 67 196
40 68 5
40 69 240
40 70 27
40 71 84
40 72 253
40 73 134
40 74 34
40 75 68
40 76 187
40 77 32
40 78 164
40 79 28
40 80 159
40 81 6
40 82 177
40 83 193
40 84 0
40 85 255
40 86 36
40 87 240
40 88 98
40 89 226
40 90 160
41 42 41
41 43 3
41 44 16
41 45 216
41 46 75
41 47 46
41 48 17
41 49 119
41 50 169
41 51 47
41 52 65
41 53 101
41 54 264
41 55 125
41 56 100
41 57 235
41 58 142
41 59 119
41 60 10
41 61 198
41 62 56
41 63 154
41 64 234
41 65 204
41 66 44
41 67 148
41 68 43
41 69 11
41 70 258
41 71 135
41 72 242
41 73 165
41 74 148
41 75 232
41 76 23
41 77 182
41 78 258
41 79 260
41 80 159
41 81 163
41 82 193
41 83 141
41 84 103
41 85 37
41 86 267
41 87 126
41 88 85
41 89 100
41 90 28
42 43 76
42 44 199
42 45 117
42 46 259
42 47 122
42 48 165
42 49 38
42 50 177
42 51 16
42 52 65
42 53 106
42 54 105
42 55 52
42 56 205
42 57 209
42 58 5
42 59 210
42 60 38
42 61 183
42 62 202
42 63 54
42 64 137
42 65 175
42 66 118
42 67 202
42 68 95
42 69 268
42 70 115
42 71 27
42 72 7
42 73 129
42 74 36
42 75 39
42 76 164
42 77 0
42 78 133
42 79 119
42 80 221
42 81 262
42 82 241
42 83 224
42 84 158
42 85 132
42 86 171
42 87 19
42 88 111
42 89 188
42 90 13
43 44 171
43 45 2
43 46 110
43 47 238
43 48 32
43 49 231
43 50 242
43 51 116
43 52 174
43 53 170
43 54 15
43 55 209
43 56 120
43 57 126
43 58 95
43 59 249
43 60 243
43 61 240
43 62 160
43 63 118
43 64 40
43 65 151
43 66 91
43 67 69
43 68 32
43 69 236
43 70 198
43 71 212
43 72 203
43 73 244
43 74 223
43 75 160
43 76 28
43 77 148
43 78 145
43 79 168
43 80 208
43 81 66
43 82 210
43 83 50
43 84 221
43 85 213
43 86 178
43 87 245
43 88 207
43 89 7
43 90 174
44 45 168
44 46 204
44 47 87
44 48 29
44 49 88
44 50 66
44 51 25
44 52 195
44 53 113
44 54 231
44 55 44
44 56 117
44 57 114
44 58 186
44 59 123
44 60 96
44 61 64
44 62 262
44 63 2
44 64 1
44 65 195
44 66 24
44 67 57
44 68 182
44 69 56
44 70 172
44 71 247
44 72 35
44 73 152
44 74 58
44 75 262
44 76 141
44 77 28
44 78 126
44 79 194
44 80 10
44 81 250
44 82 46
44 83 242
44 84 22
44 85 15
44 86 56
44 87 95
44 88 3
44 89 206
44 90 113
45 46 141
45 47 6
45 48 95
45 49 12
45 50 80
45 51 221
45 52 145
45 53 122
45 54 218
45 55 56
45 56 214
45 57 94
45 58 56
45 59 56
45 60 57
45 61 59
45 62 64
45 63 50
45 64 166
45 65 100
45 66 136
45 67 202
45 68 157
45 69 7
45 70 15
45 71 46
45 72 173
45 73 97
45 74 115
45 75 23
45 76 246
45 77 35
45 78 110
45 79 204
45 80 98
45 81 72
45 82 191
45 83 195
45 84 122
45 85 213
45 86 184
45 87 194
45 88 65
45 89 202
45 90 162
46 47 138
46 48 112
46 49 249
46 50 39
46 51 141
46 52 131
46 53 11
46 54 238
46 55 103
46 56 25
46 57 123
46 58 85
46 59 146
46 60 120
46 61 163
46 62 148
46 63 79
46 64 50
46 65 34
46 66 44
46 67 157
46 68 92
46 69 225
46 70 142
46 71 27
46 72 225
46 73 66
46 74 92
46 75 102
46 76 144
46 77 8
46 78 79
46 79 211
46 80 120
46 81 109
46 82 219
46 83 125
46 84 84
46 85 164
46 86 235
46 87 236
46 88 75
46 89 127
46 90 231
47 48 219
47 49 266
47 50 180
47 51 113
47 52 180
47 53 2
47 54 148
47 55 121
47 56 193
47 57 86
47 58 100
47 59 248
47 60 56
47 61 252
47 62 147
47 63 262
47 64 8
47 65 258
47 66 140
47 67 238
47 68 210
47 69 247
47 70 134
47 71 224
47 72 203
47 73 201
47 74 57
47 75 156
47 76 198
47 77 144
47 78 199
47 79 186
47 80 133
47 81 180
47 82 46
47 83 47
47 84 124
47 85 188
47 86 236
47 87 169
47 88 241
47 89 1
47 90 250
48 49 35
48 50 256
48 51 119
48 52 64
48 53 263
48 54 187
48 55 152
48 56 126
48 57 225
48 58 248
48 59 108
48 60 126
48 61 110
48 62 188
48 63 240
48 64 190
48 65 140
48 66 232
48 67 99
48 68 81
48 69 70
48 70 46
48 71 188
48 72 133
48 73 201
48 74 30
48 75 140
48 76 99
48 77 170
48 78 86
48 79 29
48 80 143
48 81 160
48 82 55
48 83 216
48 84 80
48 85 13
48 86 137
48 87 260
48 88 247
48 89 244
48 90 88
49 50 168
49 51 28
49 52 219
49 53 165
49 54 102
49 55 234
49 56 251
49 57 0
49 58 118
49 59 237
49 60 199
49 61 153
49 62 190
49 63 229
49 64 250
49 65 181
49 66 241
49 67 60
49 68 262
49 69 222
49 70 161
49 71 252
49 72 24
49 73 90
49 74 48
49 75 223
49 76 137
49 77 126
49 78 163
49 79 71
49 80 32
49 81 52
49 82 212
49 83 187
49 84 56
49 85 67
49 86 217
49 87 39
49 88 248
49 89 101
49 90 244
50 51 219
50 52 258
50 53 153
50 54 57
50 55 262
50 56 182
50 57 79
50 58 156
50 59 255
50 60 80
50 61 35
50 62 194
50 63 12
50 64 91
50 65 33
50 66 29
50 67 140
50 68 157
50 69 191
50 70 191
50 71 180
50 72 156
50 73 4
50 74 15
50 75 229
50 76 206
50 77 219
50 78 176
50 79 167
50 80 29
50 81 196
50 82 254
50 83 113
50 84 116
50 85 58
50 86 138
50 87 83
50 88 240
50 89 207
50 90 197
51 52 269
51 53 237
51 54 129
51 55 265
51 56 258
51 57 256
51 58 135
51 59 220
51 60 121
51 61 125
51 62 136
51 63 113
51 64 128
51 65 67
51 66 119
51 67 165
51 68 210
51 69 154
51 70 140
51 71 27
51 72 94
51 73 116
51 74 231
51 75 190
51 76 95
51 77 96
51 78 92
51 79 10
51 80 260
51 81 258
51 82 118
51 83 252
51 84 267
51 85 81
51 86 64
51 87 95
51 88 212
51 89 212
51 90 117
52 53 210
52 54 164
52 55 81
52 56 11
52 57 34
52 58 191
52 59 85
52 60 221
52 61 170
52 62 207
52 63 252
52 64 105
52 65 257
52 66 51
52 67 265
52 68 247
52 69 34
52 70 116
52 71 64
52 72 19
52 73 223
52 74 224
52 75 209
52 76 165
52 77 37
52 78 170
52 79 38
52 80 188
52 81 27
52 82 205
52 83 158
52 84 166
52 85 5
52 86 155
52 87 228
52 88 119
52 89 49
52 90 192
53 54 227
53 55 185
53 56 87
53 57 85
53 58 156
53 59 186
53 60 77
53 61 222
53 62 165
53 63 170
53 64 55
53 65 44
53 66 233
53 67 153
53 68 175
53 69 4
53 70 72
53 71 53
53 72 36
53 73 120
53 74 4
53 75 13
53 76 232
53 77 82
53 78 170
53 79 223
53 80 62
53 81 112
53 82 35
53 83 247
53 84 228
53 85 105
53 86 197
53 87 142
53 88 262
53 89 102
53 90 46
54 55 205
54 56 68
54 57 215
54 58 18
54 59 78
54 60 113
54 61 62
54 62 149
54 63 3
54 64 199
54 65 22
54 66 203
54 67 207
54 68 4
54 69 255
54 70 95
54 71 266
54 72 255
54 73 49
54 74 236
54 75 171
54 76 80
54 77 182
54 78 222
54 79 88
54 80 85
54 81 213
54 82 216
54 83 25
54 84 41
54 85 227
54 86 201
54 87 90
54 88 168
54 89 268
54 90 136
55 56 248
55 57 196
55 58 88
55 59 41
55 60 165
55 61 261
55 62 199
55 63 22
55 64 10
55 65 74
55 66 119
55 67 112
55 68 39
55 69 265
55 70 32
55 71 167
55 72 161
55 73 234
55 74 19
55 75 104
55 76 166
55 77 33
55 78 211
55 79 48
55 80 23
55 81 222
55 82 220
55 83 259
55 84 79
55 85 216
55 86 31
55 87 147
55 88 217
55 89 265
55 90 228
56 57 121
56 58 211
56 59 77
56 60 52
56 61 268
56 62 259
56 63 97
56 64 265
56 65 163
56 66 159
56 67 69
56 68 16
56 69 181
56 70 130
56 71 174
56 72 16
56 73 255
56 74 181
56 75 100
56 76 133
56 77 34
56 78 35
56 79 89
56 80 106
56 81 25
56 82 124
56 83 5
56 84 261
56 85 217
56 86 47
56 87 242
56 88 41
56 89 144
56 90 148
57 58 219
57 59 235
57 60 105
57 61 103
57 62 29
57 63 30
57 64 142
57 65 262
57 66 101
57 67 230
57 68 168
57 69 157
57 70 108
57 71 65
57 72 210
57 73 46
57 74 135
57 75 256
57 76 130
57 77 41
57 78 11
57 79 199
57 80 265
57 81 35
57 82 30
57 83 83
57 84 107
57 85 42
57 86 157
57 87 126
57 88 29
57 89 256
57 90 186
58 59 195
58 60 17
58 61 109
58 62 93
58 63 269
58 64 232
58 65 37
58 66 7
58 67 32
58 68 143
58 69 234
58 70 167
58 71 38
58 72 263
58 73 182
58 74 115
58 75 121
58 76 66
58 77 34
58 78 92
58 79 113
58 80 230
58 81 27
58 82 138
58 83 130
58 84 180
58 85 157
58 86 48
58 87 179
58 88 111
58 89 246
58 90 110
59 60 128
59 61 85
59 62 58
59 63 41
59 64 252
59 65 35
59 66 192
59 67 55
59 68 195
59 69 84
59 70 32
59 71 206
59 72 187
59 73 87
59 74 6
59 75 126
59 76 104
59 77 23
59 78 221
59 79 207
59 80 163
59 81 134
59 82 218
59 83 215
59 84 219
59 85 112
59 86 61
59 87 180
59 88 158
59 89 38
59 90 30
60 61 125
60 62 215
60 63 191
60 64 9
60 65 211
60 66 205
60 67 171
60 68 181
60 69 1
60 70 223
60 71 162
60 72 236
60 73 209
60 74 64
60 75 95
60 76 225
60 77 238
60 78 62
60 79 19
60 80 201
60 81 206
60 82 39
60 83 121
60 84 136
60 85 117
60 86 208
60 87 268
60 88 73
60 89 46
60 90 242
61 62 41
61 63 53
61 64 128
61 65 169
61 66 207
61 67 70
61 68 189
61 69 103
61 70 237
61 71 154
61 72 95
61 73 67
61 74 33
61 75 37
61 76 191
61 77 64
61 78 163
61 79 121
61 80 92
61 81 39
61 82 72
61 83 245
61 84 104
61 85 263
61 86 51
61 87 187
61 88 247
61 89 162
61 90 239
62 63 242
62 64 198
62 65 234
62 66 163
62 67 192
62 68 46
62 69 192
62 70 198
62 71 220
62 72 218
62 73 98
62 74 196
62 75 227
62 76 123
62 77 35
62 78 122
62 79 10
62 80 190
62 81 111
62 82 213
62 83 129
62 84 163
62 85 127
62 86 18
62 87 201
62 88 98
62 89 59
62 90 13
63 64 12
63 65 159
63 66 83
63 67 74
63 68 220
63 69 184
63 70 182
63 71 222
63 72 7
63 73 210
63 74 207
63 75 50
63 76 34
63 77 93
63 78 225
63 79 195
63 80 101
63 81 120
63 82 187
63 83 118
63 84 235
63 85 108
63 86 48
63 87 172
63 88 216
63 89 237
63 90 238
64 65 37
64 66 27
64 67 197
64 68 192
64 69 77
64 70 79
64 71 237
64 72 160
64 73 147
64 74 146
64 75 214
64 76 8
64 77 255
64 78 257
64 79 145
64 80 208
64 81 170
64 82 112
64 83 202
64 84 193
64 85 191
64 86 19
64 87 112
64 88 186
64 89 67
64 90 139
65 66 51
65 67 131
65 68 47
65 69 177
65 70 192
65 71 35
65 72 193
65 73 187
65 74 72
65 75 181
65 76 167
65 77 158
65 78 207
65 79 95
65 80 80
65 81 137
65 82 176
65 83 182
65 84 59
65 85 20
65 86 173
65 87 111
65 88 78
65 89 111
65 90 181
66 67 175
66 68 217
66 69 126
66 70 178
66 71 35
66 72 162
66 73 213
66 74 76
66 75 254
66 76 60
66 77 208
66 78 163
66 79 149
66 80 26
66 81 259
66 82 78
66 83 97
66 84 260
66 85 105
66 86 29
66 87 42
66 88 127
66 89 253
66 90 95
67 68 246
67 69 70
67 70 108
67 71 189
67 72 166
67 73 261
67 74 125
67 75 127
67 76 201
67 77 10
67 78 68
67 79 127
67 80 124
67 81 265
67 82 161
67 83 185
67 84 163
67 85 2
67 86 268
67 87 175
67 88 156
67 89 89
67 90 46
68 69 161
68 70 239
68 71 173
68 72 62
68 73 55
68 74 196
68 75 76
68 76 19
68 77 16
68 78 155
68 79 85
68 80 194
68 81 76
68 82 77
68 83 220
68 84 159
68 85 191
68 86 214
68 87 55
68 88 58
68 89 101
68 90 73
69 70 204
69 71 4
69 72 209
69 73 15
69 74 168
69 75 157
69 76 29
69 77 251
69 78 96
69 79 98
69 80 116
69 81 179
69 82 210
69 83 3
69 84 207
69 85 244
69 86 8
69 87 255
69 88 182
69 89 21
69 90 176
70 71 66
70 72 147
70 73 16
70 74 199
70 75 112
70 76 241
70 77 236
70 78 109
70 79 128
70 80 36
70 81 84
70 82 178
70 83 188
70 84 67
70 85 205
70 86 156
70 87 162
70 88 135
70 89 17
70 90 83
71 72 30
71 73 258
71 74 188
71 75 96
71 76 23
71 77 68
71 78 104
71 79 122
71 80 139
71 81 69
71 82 127
71 83 210
71 84 110
71 85 243
71 86 173
71 87 65
71 88 107
71 89 209
71 90 100
72 73 19
72 74 90
72 75 54
72 76 132
72 77 112
72 78 120
72 79 201
72 80 154
72 81 0
72 82 110
72 83 67
72 84 50
72 85 241
72 86 101
72 87 60
72 88 74
72 89 178
72 90 130
73 74 248
73 75 17
73 76 60
73 77 66
73 78 37
73 79 0
73 80 226
73 81 123
73 82 188
73 83 12
73 84 192
73 85 87
73 86 76
73 87 66
73 88 32
73 89 137
73 90 58
74 75 164
74 76 95
74 77 168
74 78 105
74 79 170
74 80 94
74 81 55
74 82 75
74 83 21
74 84 156
74 85 83
74 86 95
74 87 185
74 88 127
74 89 118
74 90 19
75 76 202
75 77 109
75 78 207
75 79 36
75 80 254
75 81 215
75 82 255
75 83 211
75 84 75
75 85 34
75 86 104
75 87 258
75 88 141
75 89 148
75 90 262
76 77 1
76 78 151
76 79 161
76 80 62
76 81 179
76 82 145
76 83 177
76 84 180
76 85 45
76 86 200
76 87 3
76 88 265
76 89 153
76 90 138
77 78 186
77 79 171
77 80 207
77 81 76
77 82 183
77 83 109
77 84 141
77 85 110
77 86 57
77 87 205
77 88 268
77 89 26
77 90 29
78 79 263
78 80 256
78 81 56
78 82 263
78 83 243
78 84 115
78 85 130
78 86 214
78 87 216
78 88 112
78 89 30
78 90 245
79 80 220
79 81 111
79 82 169
79 83 53
79 84 248
79 85 51
79 86 267
79 87 144
79 88 43
79 89 224
79 90 34
80 81 156
80 82 253
80 83 32
80 84 140
80 85 18
80 86 52
80 87 139
80 88 4
80 89 63
80 90 101
81 82 150
81 83 131
81 84 185
81 85 29
81 86 233
81 87 85
81 88 162
81 89 222
81 90 60
82 83 199
82 84 144
82 85 199
82 86 28
82 87 58
82 88 243
82 89 74
82 90 96
83 84 205
83 85 179
83 86 40
83 87 266
83 88 80
83 89 170
83 90 166
84 85 143
84 86 141
84 87 235
84 88 159
84 89 187
84 90 249
85 86 169
85 87 53
85 88 153
85 89 222
85 90 84
86 87 94
86 88 78
86 89 31
86 90 179
87 88 191
87 89 175
87 90 49
88 89 40
88 90 131
89 90 261
